c description: Tseitin formula on , with even charge
c generator: CNFgen (0.9.0)
c copyright: (C) 2012-2020 Massimo Lauria <massimo.lauria@uniroma1.it>
c url: https://massimolauria.net/cnfgen
c
p cnf 30 424
1 2 3 4 5 -6 0
1 2 3 4 -5 6 0
1 2 3 -4 5 6 0
1 2 3 -4 -5 -6 0
1 2 -3 4 5 6 0
1 2 -3 4 -5 -6 0
1 2 -3 -4 5 -6 0
1 2 -3 -4 -5 6 0
1 -2 3 4 5 6 0
1 -2 3 4 -5 -6 0
1 -2 3 -4 5 -6 0
1 -2 3 -4 -5 6 0
1 -2 -3 4 5 -6 0
1 -2 -3 4 -5 6 0
1 -2 -3 -4 5 6 0
1 -2 -3 -4 -5 -6 0
-1 2 3 4 5 6 0
-1 2 3 4 -5 -6 0
-1 2 3 -4 5 -6 0
-1 2 3 -4 -5 6 0
-1 2 -3 4 5 -6 0
-1 2 -3 4 -5 6 0
-1 2 -3 -4 5 6 0
-1 2 -3 -4 -5 -6 0
-1 -2 3 4 5 -6 0
-1 -2 3 4 -5 6 0
-1 -2 3 -4 5 6 0
-1 -2 3 -4 -5 -6 0
-1 -2 -3 4 5 6 0
-1 -2 -3 4 -5 -6 0
-1 -2 -3 -4 5 -6 0
-1 -2 -3 -4 -5 6 0
1 7 8 9 10 11 -12 0
1 7 8 9 10 -11 12 0
1 7 8 9 -10 11 12 0
1 7 8 9 -10 -11 -12 0
1 7 8 -9 10 11 12 0
1 7 8 -9 10 -11 -12 0
1 7 8 -9 -10 11 -12 0
1 7 8 -9 -10 -11 12 0
1 7 -8 9 10 11 12 0
1 7 -8 9 10 -11 -12 0
1 7 -8 9 -10 11 -12 0
1 7 -8 9 -10 -11 12 0
1 7 -8 -9 10 11 -12 0
1 7 -8 -9 10 -11 12 0
1 7 -8 -9 -10 11 12 0
1 7 -8 -9 -10 -11 -12 0
1 -7 8 9 10 11 12 0
1 -7 8 9 10 -11 -12 0
1 -7 8 9 -10 11 -12 0
1 -7 8 9 -10 -11 12 0
1 -7 8 -9 10 11 -12 0
1 -7 8 -9 10 -11 12 0
1 -7 8 -9 -10 11 12 0
1 -7 8 -9 -10 -11 -12 0
1 -7 -8 9 10 11 -12 0
1 -7 -8 9 10 -11 12 0
1 -7 -8 9 -10 11 12 0
1 -7 -8 9 -10 -11 -12 0
1 -7 -8 -9 10 11 12 0
1 -7 -8 -9 10 -11 -12 0
1 -7 -8 -9 -10 11 -12 0
1 -7 -8 -9 -10 -11 12 0
-1 7 8 9 10 11 12 0
-1 7 8 9 10 -11 -12 0
-1 7 8 9 -10 11 -12 0
-1 7 8 9 -10 -11 12 0
-1 7 8 -9 10 11 -12 0
-1 7 8 -9 10 -11 12 0
-1 7 8 -9 -10 11 12 0
-1 7 8 -9 -10 -11 -12 0
-1 7 -8 9 10 11 -12 0
-1 7 -8 9 10 -11 12 0
-1 7 -8 9 -10 11 12 0
-1 7 -8 9 -10 -11 -12 0
-1 7 -8 -9 10 11 12 0
-1 7 -8 -9 10 -11 -12 0
-1 7 -8 -9 -10 11 -12 0
-1 7 -8 -9 -10 -11 12 0
-1 -7 8 9 10 11 -12 0
-1 -7 8 9 10 -11 12 0
-1 -7 8 9 -10 11 12 0
-1 -7 8 9 -10 -11 -12 0
-1 -7 8 -9 10 11 12 0
-1 -7 8 -9 10 -11 -12 0
-1 -7 8 -9 -10 11 -12 0
-1 -7 8 -9 -10 -11 12 0
-1 -7 -8 9 10 11 12 0
-1 -7 -8 9 10 -11 -12 0
-1 -7 -8 9 -10 11 -12 0
-1 -7 -8 9 -10 -11 12 0
-1 -7 -8 -9 10 11 -12 0
-1 -7 -8 -9 10 -11 12 0
-1 -7 -8 -9 -10 11 12 0
-1 -7 -8 -9 -10 -11 -12 0
2 7 13 14 15 16 17 -18 0
2 7 13 14 15 16 -17 18 0
2 7 13 14 15 -16 17 18 0
2 7 13 14 15 -16 -17 -18 0
2 7 13 14 -15 16 17 18 0
2 7 13 14 -15 16 -17 -18 0
2 7 13 14 -15 -16 17 -18 0
2 7 13 14 -15 -16 -17 18 0
2 7 13 -14 15 16 17 18 0
2 7 13 -14 15 16 -17 -18 0
2 7 13 -14 15 -16 17 -18 0
2 7 13 -14 15 -16 -17 18 0
2 7 13 -14 -15 16 17 -18 0
2 7 13 -14 -15 16 -17 18 0
2 7 13 -14 -15 -16 17 18 0
2 7 13 -14 -15 -16 -17 -18 0
2 7 -13 14 15 16 17 18 0
2 7 -13 14 15 16 -17 -18 0
2 7 -13 14 15 -16 17 -18 0
2 7 -13 14 15 -16 -17 18 0
2 7 -13 14 -15 16 17 -18 0
2 7 -13 14 -15 16 -17 18 0
2 7 -13 14 -15 -16 17 18 0
2 7 -13 14 -15 -16 -17 -18 0
2 7 -13 -14 15 16 17 -18 0
2 7 -13 -14 15 16 -17 18 0
2 7 -13 -14 15 -16 17 18 0
2 7 -13 -14 15 -16 -17 -18 0
2 7 -13 -14 -15 16 17 18 0
2 7 -13 -14 -15 16 -17 -18 0
2 7 -13 -14 -15 -16 17 -18 0
2 7 -13 -14 -15 -16 -17 18 0
2 -7 13 14 15 16 17 18 0
2 -7 13 14 15 16 -17 -18 0
2 -7 13 14 15 -16 17 -18 0
2 -7 13 14 15 -16 -17 18 0
2 -7 13 14 -15 16 17 -18 0
2 -7 13 14 -15 16 -17 18 0
2 -7 13 14 -15 -16 17 18 0
2 -7 13 14 -15 -16 -17 -18 0
2 -7 13 -14 15 16 17 -18 0
2 -7 13 -14 15 16 -17 18 0
2 -7 13 -14 15 -16 17 18 0
2 -7 13 -14 15 -16 -17 -18 0
2 -7 13 -14 -15 16 17 18 0
2 -7 13 -14 -15 16 -17 -18 0
2 -7 13 -14 -15 -16 17 -18 0
2 -7 13 -14 -15 -16 -17 18 0
2 -7 -13 14 15 16 17 -18 0
2 -7 -13 14 15 16 -17 18 0
2 -7 -13 14 15 -16 17 18 0
2 -7 -13 14 15 -16 -17 -18 0
2 -7 -13 14 -15 16 17 18 0
2 -7 -13 14 -15 16 -17 -18 0
2 -7 -13 14 -15 -16 17 -18 0
2 -7 -13 14 -15 -16 -17 18 0
2 -7 -13 -14 15 16 17 18 0
2 -7 -13 -14 15 16 -17 -18 0
2 -7 -13 -14 15 -16 17 -18 0
2 -7 -13 -14 15 -16 -17 18 0
2 -7 -13 -14 -15 16 17 -18 0
2 -7 -13 -14 -15 16 -17 18 0
2 -7 -13 -14 -15 -16 17 18 0
2 -7 -13 -14 -15 -16 -17 -18 0
-2 7 13 14 15 16 17 18 0
-2 7 13 14 15 16 -17 -18 0
-2 7 13 14 15 -16 17 -18 0
-2 7 13 14 15 -16 -17 18 0
-2 7 13 14 -15 16 17 -18 0
-2 7 13 14 -15 16 -17 18 0
-2 7 13 14 -15 -16 17 18 0
-2 7 13 14 -15 -16 -17 -18 0
-2 7 13 -14 15 16 17 -18 0
-2 7 13 -14 15 16 -17 18 0
-2 7 13 -14 15 -16 17 18 0
-2 7 13 -14 15 -16 -17 -18 0
-2 7 13 -14 -15 16 17 18 0
-2 7 13 -14 -15 16 -17 -18 0
-2 7 13 -14 -15 -16 17 -18 0
-2 7 13 -14 -15 -16 -17 18 0
-2 7 -13 14 15 16 17 -18 0
-2 7 -13 14 15 16 -17 18 0
-2 7 -13 14 15 -16 17 18 0
-2 7 -13 14 15 -16 -17 -18 0
-2 7 -13 14 -15 16 17 18 0
-2 7 -13 14 -15 16 -17 -18 0
-2 7 -13 14 -15 -16 17 -18 0
-2 7 -13 14 -15 -16 -17 18 0
-2 7 -13 -14 15 16 17 18 0
-2 7 -13 -14 15 16 -17 -18 0
-2 7 -13 -14 15 -16 17 -18 0
-2 7 -13 -14 15 -16 -17 18 0
-2 7 -13 -14 -15 16 17 -18 0
-2 7 -13 -14 -15 16 -17 18 0
-2 7 -13 -14 -15 -16 17 18 0
-2 7 -13 -14 -15 -16 -17 -18 0
-2 -7 13 14 15 16 17 -18 0
-2 -7 13 14 15 16 -17 18 0
-2 -7 13 14 15 -16 17 18 0
-2 -7 13 14 15 -16 -17 -18 0
-2 -7 13 14 -15 16 17 18 0
-2 -7 13 14 -15 16 -17 -18 0
-2 -7 13 14 -15 -16 17 -18 0
-2 -7 13 14 -15 -16 -17 18 0
-2 -7 13 -14 15 16 17 18 0
-2 -7 13 -14 15 16 -17 -18 0
-2 -7 13 -14 15 -16 17 -18 0
-2 -7 13 -14 15 -16 -17 18 0
-2 -7 13 -14 -15 16 17 -18 0
-2 -7 13 -14 -15 16 -17 18 0
-2 -7 13 -14 -15 -16 17 18 0
-2 -7 13 -14 -15 -16 -17 -18 0
-2 -7 -13 14 15 16 17 18 0
-2 -7 -13 14 15 16 -17 -18 0
-2 -7 -13 14 15 -16 17 -18 0
-2 -7 -13 14 15 -16 -17 18 0
-2 -7 -13 14 -15 16 17 -18 0
-2 -7 -13 14 -15 16 -17 18 0
-2 -7 -13 14 -15 -16 17 18 0
-2 -7 -13 14 -15 -16 -17 -18 0
-2 -7 -13 -14 15 16 17 -18 0
-2 -7 -13 -14 15 16 -17 18 0
-2 -7 -13 -14 15 -16 17 18 0
-2 -7 -13 -14 15 -16 -17 -18 0
-2 -7 -13 -14 -15 16 17 18 0
-2 -7 -13 -14 -15 16 -17 -18 0
-2 -7 -13 -14 -15 -16 17 -18 0
-2 -7 -13 -14 -15 -16 -17 18 0
8 13 19 20 21 -22 0
8 13 19 20 -21 22 0
8 13 19 -20 21 22 0
8 13 19 -20 -21 -22 0
8 13 -19 20 21 22 0
8 13 -19 20 -21 -22 0
8 13 -19 -20 21 -22 0
8 13 -19 -20 -21 22 0
8 -13 19 20 21 22 0
8 -13 19 20 -21 -22 0
8 -13 19 -20 21 -22 0
8 -13 19 -20 -21 22 0
8 -13 -19 20 21 -22 0
8 -13 -19 20 -21 22 0
8 -13 -19 -20 21 22 0
8 -13 -19 -20 -21 -22 0
-8 13 19 20 21 22 0
-8 13 19 20 -21 -22 0
-8 13 19 -20 21 -22 0
-8 13 19 -20 -21 22 0
-8 13 -19 20 21 -22 0
-8 13 -19 20 -21 22 0
-8 13 -19 -20 21 22 0
-8 13 -19 -20 -21 -22 0
-8 -13 19 20 21 -22 0
-8 -13 19 20 -21 22 0
-8 -13 19 -20 21 22 0
-8 -13 19 -20 -21 -22 0
-8 -13 -19 20 21 22 0
-8 -13 -19 20 -21 -22 0
-8 -13 -19 -20 21 -22 0
-8 -13 -19 -20 -21 22 0
3 9 14 19 23 -24 0
3 9 14 19 -23 24 0
3 9 14 -19 23 24 0
3 9 14 -19 -23 -24 0
3 9 -14 19 23 24 0
3 9 -14 19 -23 -24 0
3 9 -14 -19 23 -24 0
3 9 -14 -19 -23 24 0
3 -9 14 19 23 24 0
3 -9 14 19 -23 -24 0
3 -9 14 -19 23 -24 0
3 -9 14 -19 -23 24 0
3 -9 -14 19 23 -24 0
3 -9 -14 19 -23 24 0
3 -9 -14 -19 23 24 0
3 -9 -14 -19 -23 -24 0
-3 9 14 19 23 24 0
-3 9 14 19 -23 -24 0
-3 9 14 -19 23 -24 0
-3 9 14 -19 -23 24 0
-3 9 -14 19 23 -24 0
-3 9 -14 19 -23 24 0
-3 9 -14 -19 23 24 0
-3 9 -14 -19 -23 -24 0
-3 -9 14 19 23 -24 0
-3 -9 14 19 -23 24 0
-3 -9 14 -19 23 24 0
-3 -9 14 -19 -23 -24 0
-3 -9 -14 19 23 24 0
-3 -9 -14 19 -23 -24 0
-3 -9 -14 -19 23 -24 0
-3 -9 -14 -19 -23 24 0
4 20 23 -25 0
4 20 -23 25 0
4 -20 23 25 0
4 -20 -23 -25 0
-4 20 23 25 0
-4 20 -23 -25 0
-4 -20 23 -25 0
-4 -20 -23 25 0
5 15 26 27 -28 0
5 15 26 -27 28 0
5 15 -26 27 28 0
5 15 -26 -27 -28 0
5 -15 26 27 28 0
5 -15 26 -27 -28 0
5 -15 -26 27 -28 0
5 -15 -26 -27 28 0
-5 15 26 27 28 0
-5 15 26 -27 -28 0
-5 15 -26 27 -28 0
-5 15 -26 -27 28 0
-5 -15 26 27 -28 0
-5 -15 26 -27 28 0
-5 -15 -26 27 28 0
-5 -15 -26 -27 -28 0
6 10 16 21 26 -29 0
6 10 16 21 -26 29 0
6 10 16 -21 26 29 0
6 10 16 -21 -26 -29 0
6 10 -16 21 26 29 0
6 10 -16 21 -26 -29 0
6 10 -16 -21 26 -29 0
6 10 -16 -21 -26 29 0
6 -10 16 21 26 29 0
6 -10 16 21 -26 -29 0
6 -10 16 -21 26 -29 0
6 -10 16 -21 -26 29 0
6 -10 -16 21 26 -29 0
6 -10 -16 21 -26 29 0
6 -10 -16 -21 26 29 0
6 -10 -16 -21 -26 -29 0
-6 10 16 21 26 29 0
-6 10 16 21 -26 -29 0
-6 10 16 -21 26 -29 0
-6 10 16 -21 -26 29 0
-6 10 -16 21 26 -29 0
-6 10 -16 21 -26 29 0
-6 10 -16 -21 26 29 0
-6 10 -16 -21 -26 -29 0
-6 -10 16 21 26 -29 0
-6 -10 16 21 -26 29 0
-6 -10 16 -21 26 29 0
-6 -10 16 -21 -26 -29 0
-6 -10 -16 21 26 29 0
-6 -10 -16 21 -26 -29 0
-6 -10 -16 -21 26 -29 0
-6 -10 -16 -21 -26 29 0
11 17 24 27 -30 0
11 17 24 -27 30 0
11 17 -24 27 30 0
11 17 -24 -27 -30 0
11 -17 24 27 30 0
11 -17 24 -27 -30 0
11 -17 -24 27 -30 0
11 -17 -24 -27 30 0
-11 17 24 27 30 0
-11 17 24 -27 -30 0
-11 17 -24 27 -30 0
-11 17 -24 -27 30 0
-11 -17 24 27 -30 0
-11 -17 24 -27 30 0
-11 -17 -24 27 30 0
-11 -17 -24 -27 -30 0
12 18 22 25 28 29 -30 0
12 18 22 25 28 -29 30 0
12 18 22 25 -28 29 30 0
12 18 22 25 -28 -29 -30 0
12 18 22 -25 28 29 30 0
12 18 22 -25 28 -29 -30 0
12 18 22 -25 -28 29 -30 0
12 18 22 -25 -28 -29 30 0
12 18 -22 25 28 29 30 0
12 18 -22 25 28 -29 -30 0
12 18 -22 25 -28 29 -30 0
12 18 -22 25 -28 -29 30 0
12 18 -22 -25 28 29 -30 0
12 18 -22 -25 28 -29 30 0
12 18 -22 -25 -28 29 30 0
12 18 -22 -25 -28 -29 -30 0
12 -18 22 25 28 29 30 0
12 -18 22 25 28 -29 -30 0
12 -18 22 25 -28 29 -30 0
12 -18 22 25 -28 -29 30 0
12 -18 22 -25 28 29 -30 0
12 -18 22 -25 28 -29 30 0
12 -18 22 -25 -28 29 30 0
12 -18 22 -25 -28 -29 -30 0
12 -18 -22 25 28 29 -30 0
12 -18 -22 25 28 -29 30 0
12 -18 -22 25 -28 29 30 0
12 -18 -22 25 -28 -29 -30 0
12 -18 -22 -25 28 29 30 0
12 -18 -22 -25 28 -29 -30 0
12 -18 -22 -25 -28 29 -30 0
12 -18 -22 -25 -28 -29 30 0
-12 18 22 25 28 29 30 0
-12 18 22 25 28 -29 -30 0
-12 18 22 25 -28 29 -30 0
-12 18 22 25 -28 -29 30 0
-12 18 22 -25 28 29 -30 0
-12 18 22 -25 28 -29 30 0
-12 18 22 -25 -28 29 30 0
-12 18 22 -25 -28 -29 -30 0
-12 18 -22 25 28 29 -30 0
-12 18 -22 25 28 -29 30 0
-12 18 -22 25 -28 29 30 0
-12 18 -22 25 -28 -29 -30 0
-12 18 -22 -25 28 29 30 0
-12 18 -22 -25 28 -29 -30 0
-12 18 -22 -25 -28 29 -30 0
-12 18 -22 -25 -28 -29 30 0
-12 -18 22 25 28 29 -30 0
-12 -18 22 25 28 -29 30 0
-12 -18 22 25 -28 29 30 0
-12 -18 22 25 -28 -29 -30 0
-12 -18 22 -25 28 29 30 0
-12 -18 22 -25 28 -29 -30 0
-12 -18 22 -25 -28 29 -30 0
-12 -18 22 -25 -28 -29 30 0
-12 -18 -22 25 28 29 30 0
-12 -18 -22 25 28 -29 -30 0
-12 -18 -22 25 -28 29 -30 0
-12 -18 -22 25 -28 -29 30 0
-12 -18 -22 -25 28 29 -30 0
-12 -18 -22 -25 28 -29 30 0
-12 -18 -22 -25 -28 29 30 0
-12 -18 -22 -25 -28 -29 -30 0